ALGO = F
EDIFF = 1e-06
ENCUT = 600
GGA = PE
IBRION = -1
ISIF = 2
ISMEAR = 0
ISPIN = 1
ISTART = 0
ISYM = 0
LCHARG = False
LREAL = Auto
LWAVE = False
NCORE = 1
NELM = 120
NELMIN = 4
NSIM = 8
NSW = 0
PREC = Normal
SIGMA = 0.05
SYSTEM = H80o40mg48-pbe-scf