Mg48 H158 O80
1.0
   9.7799999999999994    0.0000000000000000    0.0000000000000000
   0.0000000000000000   11.3800000000000008    0.0000000000000000
   0.0000000000000000    0.0000000000000000   27.0000000000000000
H O Mg
158 80 48
direct
   0.0601744253578732    0.1884660966608084    0.7553613429629630 H
   0.9137376707566464    0.6139412117750439    0.5267298114814815 H
   0.5185360593047035    0.7149426485061510    0.9296899903703704 H
   0.3083856584867076    0.4551485456942003    0.2070121866666667 H
   0.2441149836400818    0.4330646256590510    0.6548875933333332 H
   0.3991899836400818    0.9900945518453427    0.4670680770370370 H
   0.0871440398773006    0.5310762337434095    0.2489657803703703 H
   0.7783492126789366    0.4002945650263620    0.8547836122222222 H
   0.8521894570552146    0.6939157917398945    0.9146345740740740 H
   0.3657089580777096    0.4566688901581722    0.9220454681481481 H
   0.5854998824130879    0.4610236054481546    0.5584759107407408 H
   0.3130980429447853    0.7291411590509664    0.6170166496296297 H
   0.5336248629856850    0.1132643268892794    0.2292716066666667 H
   0.3302367770961145    0.3003931616871705    0.5385454625925926 H
   0.7907352965235174    0.4605141660808436    0.1894391392592593 H
   0.8963115000000000    0.8223494973637961    0.6297900825925925 H
   0.0072937678936605    0.9214910017574692    0.9267299603703703 H
   0.6037391472392638    0.9224276968365552    0.9262590666666666 H
   0.1587464529652352    0.4613001133567662    0.5494005122222222 H
   0.0441944846625767    0.8423497319859402    0.5156335851851852 H
   0.3837203762781186    0.2785221748681898    0.1672666129629630 H
   0.9978676513292435    0.6083826168717047    0.8667428737037036 H
   0.6357957883435583    0.2653616528998242    0.5932863511111111 H
   0.9302844304703477    0.5402841880492091    0.7705433644444444 H
   0.4344684294478527    0.5655444727592266    0.4589783692592592 H
   0.0664630848670757    0.6386669701230228    0.6259546588888889 H
   0.4312113425357873    0.5245543585237258    0.6052063966666666 H
   0.6336242638036810    0.8584053927943759    0.1948853670370370 H
   0.4125996799591002    0.3828206704745166    0.6054958177777777 H
   0.0793984601226994    0.4512693760984183    0.6445227018518518 H
   0.7851607627811862    0.9321439305799648    0.1286104562962963 H
   0.4296353169734151    0.0673243576449912    0.6238743670370370 H
   0.7584835603271983    0.3395824674868190    0.5468500948148147 H
   0.7693477218813906    0.9041772056239015    0.8552455955555555 H
   0.4716465961145194    0.6098772899824253    0.6893712007407407 H
   0.5074111063394683    0.8898187820738137    0.8416092600000000 H
   0.5580141063394682    0.1172049182776801    0.5970453366666667 H
   0.3628757024539877    0.5885720755711774    0.8861147937037036 H
   0.7562849744376279    0.8598447811950789    0.1396808525925926 H
   0.9697532801635992    0.1596083093145870    0.1689440448148148 H
   0.1460115541922291    0.1541272987697715    0.5423863759259259 H
   0.8910206145194275    0.0161479024604569    0.6235700025925925 H
   0.1480992453987730    0.2263279297012302    0.6032625307407408 H
   0.0889411768916155    0.9154302996485060    0.1660962759259259 H
   0.2368484130879346    0.2436064595782074    0.4692534533333333 H
   0.1900115623721881    0.8036134209138840    0.5459548537037037 H
   0.4858647382413088    0.9868406581722319    0.1463157311111111 H
   0.4131699304703476    0.7053186353251316    0.1515802081481481 H
   0.6962022106339468    0.5053848347978910    0.4694418537037037 H
   0.0528431922290389    0.9151144692442881    0.7041523911111111 H
   0.1925519335378323    0.1605760254833040    0.9191752733333333 H
   0.3696785368098159    0.7345762574692442    0.6737968533333333 H
   0.6431784979550103    0.6676012328646748    0.5999081259259259 H
   0.3023684672801636    0.6410949824253075    0.5454465896296296 H
   0.8506432392638037    0.1060546467486819    0.5157734114814815 H
   0.0363761073619632    0.0543319463971880    0.8586864348148148 H
   0.6790056104294478    0.3440628558875219    0.6695939348148148 H
   0.0268113619631902    0.5200036309314586    0.4734902922222222 H
   0.6568168282208590    0.9218138444639719    0.6968047433333333 H
   0.5162945910020450    0.2561923356766256    0.7460434203703703 H
   0.1754626615541922    0.6640519024604569    0.1921554829629629 H
   0.5673036789366054    0.8269178286467486    0.5276846188888888 H
   0.0605699345603272    0.1120266977152900    0.8438819911111111 H
   0.0513613077709611    0.1576947688927944    0.6398565625925926 H
   0.9227480572597138    0.7805210456942003    0.6500094785185185 H
   0.0141893680981595    0.8669680483304041    0.1626095629629630 H
   0.6984981891615542    0.6485223242530755    0.5006551166666666 H
   0.9021751380368098    0.5658619165202108    0.6693560714814815 H
   0.3852117126789366    0.1265866766256590    0.5250271481481481 H
   0.4215487546012270    0.7133136353251317    0.5478541703703703 H
   0.7156754550102250    0.9967587926186291    0.4755398362962963 H
   0.0878116717791411    0.3414431493848857    0.5339621488888888 H
   0.2949349897750511    0.8885373022847100    0.6719288422222222 H
   0.4008213476482618    0.0772889991212654    0.8506443785185185 H
   0.2292979570552147    0.1284361704745167    0.2085030114814815 H
   0.3601708139059305    0.9970004894551845    0.5419540477777777 H
   0.0317942781186094    0.9800388725834797    0.4705390240740740 H
   0.5483948108384459    0.9159933383128294    0.8216794248148148 H
   0.3603878374233129    0.5009258075571177    0.2107079092592593 H
   0.3258440378323108    0.0587918594024604    0.8543028688888888 H
   0.8764468169734151    0.9172552618629173    0.5392048448148148 H
   0.5993456206543968    0.7089002003514938    0.7158089411111110 H
   0.2600544867075665    0.5240625641476274    0.7407706522222222 H
   0.5618747924335379    0.8522388963093145    0.0765510018518518 H
   0.3794496022494888    0.6039607416520211    0.7400156292592592 H
   0.8776639447852761    0.3179587047451670    0.4756954944444444 H
   0.7021644253578733    0.1582069797891037    0.8314151825925926 H
   0.1945913895705522    0.1018207644991213    0.1833957722222222 H
   0.2896396523517383    0.8700500228471001    0.2059137822222222 H
   0.5021800153374233    0.5088566256590510    0.5066968285185185 H
   0.4891547801635992    0.1581761660808436    0.9100402559259259 H
   0.4129853282208589    0.9625462416520211    0.7036616229629630 H
   0.7344230173824131    0.2635852407732864    0.2254985451851852 H
   0.6207781513292433    0.7565442460456941    0.6414635262962962 H
   0.4471734110429448    0.9222919639718804    0.1496952877777778 H
   0.6158205061349694    0.7452959630931457    0.4685119592592593 H
   0.0608302321063395    0.3359358725834797    0.1700434011111111 H
   0.5800329386503068    0.5759496019332161    0.1879016933333333 H
   0.2617323865030675    0.1410859727592267    0.7001876514814814 H
   0.6165019580777096    0.4989013954305799    0.8056055388888889 H
   0.1795090030674847    0.6784381203866431    0.9331797644444444 H
   0.8631511543967280    0.1570218848857645    0.9192574777777777 H
   0.5940705664621677    0.8788036467486817    0.2166014800000000 H
   0.0025844059304703    0.1939290949033392    0.7715225751851851 H
   0.4090826349693252    0.3400748602811950    0.7536113418518519 H
   0.4978237300613497    0.7054965158172231    0.1539765918518518 H
   0.2302527259713701    0.8431374507908610    0.8636675488888889 H
   0.7955447914110430    0.4778899481546573    0.2248134196296296 H
   0.8154037137014315    0.0172774956063269    0.2084428903703704 H
   0.1329690204498978    0.3782051423550087    0.1698650292592593 H
   0.9088219775051124    0.7914723330404216    0.4705002033333333 H
   0.4378209591002045    0.6115170562390158    0.8755606670370371 H
   0.5681891605316973    0.0334665492091388    0.6764460207407407 H
   0.7629251809815951    0.6980809973637960    0.1394333033333333 H
   0.6662604570552147    0.1592035940246046    0.1334273307407407 H
   0.8680551881390594    0.1891071300527240    0.6755949566666667 H
   0.6796264417177914    0.4203581818980667    0.9186019833333333 H
   0.7545710051124744    0.4371224604569420    0.6505260685185185 H
   0.9325058987730062    0.7011452442882249    0.2411039948148148 H
   0.6485176288343558    0.6563432126537785    0.8531308185185185 H
   0.9727265674846626    0.3015065369068541    0.6989915518518518 H
   0.9035174744376278    0.4098639789103690    0.5363046851851851 H
   0.0409286503067485    0.4066355395430580    0.9198053748148148 H
   0.3865050398773006    0.8835672970123022    0.9267379914814814 H
   0.7781126053169735    0.5987432926186291    0.6936749651851851 H
   0.5950787505112474    0.5188789182776801    0.2028501162962963 H
   0.7970989417177914    0.1003570421792619    0.5957866555555555 H
   0.1922671809815951    0.6969934411247802    0.2141775092592592 H
   0.1586369182004090    0.2521396089630931    0.8477527937037036 H
   0.0531532770961145    0.5677009209138840    0.8635461537037036 H
   0.7646940541922290    0.7506443822495605    0.7422298951851851 H
   0.2064126595092025    0.7913843312829525    0.4718144937037037 H
   0.2560130869120654    0.2816270166959578    0.6976201125925926 H
   0.7296356288343558    0.6553926318101932    0.8643571540740740 H
   0.8138480255623722    0.3583057530755712    0.8684921125925926 H
   0.5524394509202455    0.0555244543057996    0.2125616985185185 H
   0.6650787116564417    0.6762651985940246    0.2393695537037037 H
   0.9614594089979551    0.5765478233743410    0.5757517685185185 H
   0.0338283169734151    0.1064962065026362    0.1581560470370370 H
   0.0440082842535787    0.0674741625659051    0.5669582718518519 H
   0.0490408190184049    0.9514533884007029    0.7242016400000000 H
   0.7810933384458077    0.7931559235500878    0.5268316792592592 H
   0.7150715286298569    0.1400113664323374    0.5351124611111111 H
   0.1439581799591002    0.7450055667838312    0.7499200148148149 H
   0.3222128118609407    0.2571022706502636    0.1844428918518519 H
   0.7600097842535787    0.0636151151142355    0.2099356651851852 H
   0.7045519621676891    0.1484131608084358    0.8058069603703704 H
   0.5385683916155419    0.4808912803163444    0.8057639144444444 H
   0.2268686196319018    0.7879290166959577    0.8469953511111110 H
   0.1352373425357873    0.7942161968365553    0.7660846607407408 H
   0.8263226411042945    0.9152163154657292    0.8734518281481480 H
   0.5228911421267893    0.8886187073813707    0.5781525651851851 H
   0.0034550501022495    0.5623988347978910    0.7626007896296296 H
   0.6744040685071575    0.2987301546572935    0.2230495274074074 H
   0.2181220961145194    0.2708725861159930    0.8623936133333333 H
   0.4957430725971370    0.2538200360281195    0.5502987240740740 H
   0.5362750460122699    0.2592839086115993    0.4687464451851852 H
   0.2270528261758691    0.8722697231985940    0.2209618166666666 H
   0.7687326503067484    0.0647318831282953    0.5318944029629630 O
   0.0704240950920245    0.9859541177504393    0.4312193874074074 O
   0.3795854570552147    0.4538178884007030    0.6156073844444444 O
   0.6412125490797547    0.9142612636203865    0.9609070462962963 O
   0.3448550092024540    0.5839437135325132    0.0403854140740741 O
   0.8554582402862986    0.1892326423550088    0.9540133114814815 O
   0.5261630163599182    0.3476019938488576    0.0409987474074074 O
   0.1933700797546012    0.3321896159929701    0.0300963540740741 O
   0.2414584018404908    0.2345184279437610    0.4318062488888889 O
   0.4094183057259714    0.2559721660808436    0.5229965703703704 O
   0.5544498824130879    0.9050200096660808    0.3382626688888888 O
   0.3257426237218814    0.4255545369068541    0.9520457322222222 O
   0.3840753036809816    0.6606513163444639    0.3509816940740741 O
   0.2829103793456033    0.7556416414762741    0.6507074992592593 O
   0.5873564938650306    0.6772710527240773    0.6289052155555555 O
   0.2917253251533742    0.2130313014059754    0.7181721296296296 O
   0.8556770102249489    0.3314050711775043    0.5401590388888888 O
   0.0382097719836401    0.0817650114235501    0.0342166881481481 O
   0.5280302280163599    0.0384425913884007    0.6127264633333334 O
   0.5765590429447853    0.7266575430579963    0.4284453866666666 O
   0.3528224110429448    0.5262180606326888    0.7542669829629630 O
   0.3955853680981595    0.9793084156414762    0.4272933292592592 O
   0.8451737965235173    0.8242788066783829    0.0388265018518519 O
   0.0027340327198364    0.5820221045694199    0.0359312296296296 O
   0.7488456288343559    0.6470822073813708    0.3460840688888889 O
   0.6194227822085889    0.2085124762741652    0.5660402785185185 O
   0.7157350695296524    0.0092174279437610    0.4387322474074073 O
   0.6871422218813906    0.4248666915641475    0.9577431774074073 O
   0.4937070184049080    0.8780360079086115    0.5426177555555555 O
   0.9782702157464213    0.5491971344463971    0.5343603681481481 O
   0.5930103926380368    0.5040917803163444    0.5258820300000000 O
   0.8698929621676891    0.2730551441124780    0.4452887659259259 O
   0.8862289662576688    0.8295606906854129    0.5367412281481482 O
   0.3310522198364008    0.9064680773286466    0.9544727211111110 O
   0.7219999243353784    0.1628483312829525    0.3474106881481481 O
   0.6715380255623722    0.7316231933216168    0.5073309251851852 O
   0.8983031053169734    0.9067212601054481    0.3467958337037037 O
   0.3476111932515338    0.0917802697715290    0.0381368181481481 O
   0.3835986226993865    0.0438317021089631    0.5094484785185185 O
   0.9994262944785276    0.4067176309314586    0.9516508462962963 O
   0.8884491237218813    0.7621086476274165    0.4376607092592592 O
   0.6823499754601227    0.3871835905096661    0.6395099288888888 O
   0.1905782822085890    0.1660497284710017    0.9536447225925926 O
   0.8574510408997956    0.0998189569420035    0.6234666114814815 O
   0.3956644591002045    0.1671743040421792    0.3523835333333333 O
   0.5139640327198364    0.6760327284710017    0.9633345255555555 O
   0.5110501370143149    0.1745361599297012    0.9482364222222222 O
   0.4060408680981595    0.4987082214411248    0.4377922677777777 O
   0.1779230265848671    0.3762626221441124    0.5456991474074073 O
   0.0726583926380368    0.6724263514938488    0.3484502844444444 O
   0.2328032413087935    0.4252333128295254    0.3563112048148148 O
   0.1479836257668712    0.8261351502636204    0.0493100988888889 O
   0.9080210316973415    0.4171642513181019    0.3554594207407407 O
   0.1473588476482618    0.1616196766256590    0.6269257970370370 O
   0.1483798793456033    0.4156484710017574    0.6672183540740740 O
   0.0729744826175869    0.1003081748681898    0.5342966507407407 O
   0.1538051809815951    0.8507277188049208    0.5179749785185185 O
   0.8380357944785277    0.6688844534270649    0.9512489074074073 O
   0.4471974550102249    0.6846646590509665    0.7075320470370371 O
   0.5788716451942740    0.4229554753954305    0.3550462096296296 O
   0.8563372893660532    0.3388562609841828    0.0342922181481481 O
   0.9945863200408999    0.9009173743409489    0.9615679022222221 O
   0.5139407781186094    0.3443172434094903    0.7473656403703703 O
   0.9937195623721882    0.5828633268892793    0.6227044370370369 O
   0.1969632147239264    0.6556807934973637    0.9655411785185184 O
   0.6674846881390593    0.1043650483304042    0.0360775096296296 O
   0.5960252464212680    0.9852974859402460    0.7050851385185185 O
   0.3672396574642127    0.6562937337434094    0.5672361848148149 O
   0.3147792740286299    0.9718350342706501    0.6887835848148147 O
   0.2444301145194274    0.9370692724077327    0.3350698651851852 O
   0.8480419570552148    0.5362122644991212    0.6950914829629629 O
   0.7470649314928426    0.5172722829525482    0.4359603511111111 O
   0.0697730480572597    0.1623039376098418    0.3534672088888888 O
   0.8724597760736197    0.2685124762741652    0.7006828811111110 O
   0.4917376697341513    0.8714478848857644    0.0521515188888889 O
   0.6994639437627812    0.7476202231985939    0.7118660918518518 O
   0.5776650940695296    0.2655833567662566    0.4331824329629629 O
   0.6904473098159509    0.5783805105448154    0.0407343362962963 O
   0.2201985961145194    0.7709945166959578    0.4364322411111111 O
   0.0631892505112474    0.5261800193321616    0.4355191281481481 O
   0.1817755572597137    0.9878482144112476    0.9803024451851852 Mg
   0.8174013568507158    0.9999152029876976    0.9799120718518518 Mg
   0.5046720961145195    0.0017878479789104    0.0053062733333333 Mg
   0.1586845030674847    0.4786509156414762    0.9973225422222222 Mg
   0.0478330368098159    0.3261898075571177    0.4012620425925926 Mg
   0.7905302914110429    0.7421700720562389    0.1960682681481482 Mg
   0.0446055357873211    0.8105062688927943    0.3970724785185185 Mg
   0.9829161574642128    0.9467713936731107    0.0698602155555555 Mg
   0.0052132372188139    0.2524466511423550    0.9903067144444444 Mg
   0.8909712668711656    0.0686597275922671    0.4036410903703704 Mg
   0.1904994458077710    0.1811844912126537    0.0697947703703704 Mg
   0.0232617811860941    0.7441758963093145    0.9992770459259258 Mg
   0.9093610603271984    0.5927378479789104    0.4104801818518518 Mg
   0.9636959488752556    0.5445277038664322    0.1962309292592593 Mg
   0.8454289478527608    0.5067713594024604    0.9851620440740740 Mg
   0.7339645112474438    0.3517578840070298    0.4042403292592592 Mg
   0.6639168108384459    0.4345556599297012    0.0806843314814815 Mg
   0.6596753732106340    0.2500265509666081    0.9955002840740741 Mg
   0.5580121625766871    0.0960063541300527    0.4101117966666667 Mg
   0.8395171728016360    0.1754858216168717    0.0697740237037037 Mg
   0.7220544089979550    0.8249322372583479    0.3976231548148148 Mg
   0.8717306032719837    0.6453422785588752    0.0792728403703704 Mg
   0.6965069437627812    0.7520146405975395    0.9982510233333333 Mg
   0.5820005541922291    0.5829812328646747    0.3948994374074073 Mg
   0.1726933496932515    0.6484030070298769    0.0874470314814815 Mg
   0.5205662167689161    0.5175750905096660    0.9947205466666666 Mg
   0.4120663374233129    0.3369385017574692    0.4032816959259259 Mg
   0.0164323711656442    0.4091682759226712    0.0836735981481481 Mg
   0.3604733619631902    0.2515853734622144    0.9864042755555555 Mg
   0.2232511533742332    0.0623000281195079    0.3986007081481481 Mg
   0.5345091625766871    0.1840887223198594    0.0843632200000000 Mg
   0.4175083711656442    0.8261125931458699    0.3966019581481481 Mg
   0.3460180112474438    0.4141184947275922    0.0755207085185185 Mg
   0.3534369447852761    0.7464233207381370    0.0047404537037037 Mg
   0.2252289928425358    0.5995899086115992    0.4085714644444444 Mg
   0.3176210224948876    0.9071312987697714    0.0830952896296296 Mg
   0.5468661380368098    0.7335121353251318    0.2987701325925926 Mg
   0.2383903967280164    0.7491934209138840    0.3149509007407407 Mg
   0.8842821656441718    0.7464151274165202    0.3102903529629629 Mg
   0.5731047096114520    0.2585632223198594    0.3217144014814814 Mg
   0.4187081983640082    0.0025929332161687    0.3193758292592592 Mg
   0.3974960235173824    0.4866075729349736    0.3182760722222222 Mg
   0.2313589038854806    0.2478884718804921    0.3160502425925926 Mg
   0.0434681605316973    0.9909021177504392    0.3151194818518518 Mg
   0.0797314621676892    0.4957406370826010    0.3216132618518519 Mg
   0.9129467484662577    0.2506642504393673    0.3161917125925926 Mg
   0.7328586871165644    0.9970845949033391    0.3182806129629629 Mg
   0.7348201257668712    0.4932872363796133    0.3172261359259259 Mg
